// FEASIBLE
// COST 309
nNurses=309;
minHours=3;
maxPresence=12;
maxHours=10;
maxConsec=6;
hoursDay=24;
demand=[105 95 91 105 102 93 102 99 102 105 107 98 103 102 96 103 100 95 109 102 100 99 93 99];
